p edge 90 89 41
e 1 87
e 1 33
e 2 55
e 3 68
e 4 76
e 5 75
e 5 21
e 6 59
e 7 20
e 8 22
e 9 71
e 10 18
e 10 81
e 10 74
e 10 19
e 11 44
e 11 86
e 11 75
e 12 71
e 12 16
e 13 24
e 13 28
e 14 60
e 14 79
e 15 68
e 15 89
e 15 43
e 16 56
e 16 61
e 17 25
e 18 38
e 19 68
e 20 23
e 20 27
e 21 45
e 22 28
e 22 88
e 24 83
e 25 55
e 25 60
e 26 60
e 27 66
e 27 67
e 27 89
e 29 43
e 30 85
e 30 31
e 31 35
e 31 40
e 32 69
e 32 90
e 33 36
e 33 61
e 34 75
e 36 51
e 37 43
e 39 70
e 39 56
e 40 62
e 40 43
e 41 52
e 42 72
e 42 73
e 43 69
e 45 61
e 45 49
e 45 65
e 46 80
e 46 59
e 47 77
e 48 69
e 49 88
e 50 79
e 52 76
e 53 82
e 53 57
e 53 74
e 54 82
e 55 84
e 57 78
e 57 65
e 58 69
e 59 78
e 60 73
e 63 72
e 64 84
e 71 76
e 77 80
e 79 86
